
(set-logic ALL) 

(declare-datatype MyList ((Nil) (Cons (head Real) (tail MyList)) )) 
(declare-fun l0 () MyList) 
(declare-fun l1 () MyList) 
(declare-fun l2 () MyList) 
(declare-fun l3 () MyList) 
(declare-fun i0 () Real) 
(declare-fun i1 () Real) 
(assert (is-Nil l3) )
(assert (= l3 l1) )
(assert (or (= l1 Nil) (is-Nil l0)) )
(assert (= l0 l1) )
(assert (is-Cons Nil) )
(assert (= l1 Nil) )
(assert (not (= l2 l3)) )
(assert (is-Nil l3) )
(check-sat)
